10
8
247.5
73
42
55
96
45
89
49
77
64
76
20
58
46
40
16
35
36
61
91
100
222.5
17
23
40
75
87
23
19
27
53
16
58
95
57
95
25
56
25
64
64
43
1e+155
36
61
81
78
80
39
74
35
50
46
34
57
76
52
10
78
73
54
35
39
1e+155
30
46
18
87
97
34
39
94
17
91
18
76
56
64
22
63
97
10
36
56
1e+155
55
33
16
34
88
77
90
42
92
13
58
49
99
89
58
38
85
26
47
52
1e+155
49
29
77
15
72
53
91
34
62
92
46
14
45
10
36
74
55
90
79
38
1e+155
51
64
90
57
30
87
24
47
18
58
39
96
86
61
83
18
27
53
19
51
1e+155
19
53
24
50
70
67
16
89
37
52
92
26
64
13
28
72
47
63
93
48
